
Gurobi 11.0.3 (mac64[x86]) logging started Mon Oct  7 20:35:42 2024

Set parameter LogFile to value "output/model-gurobi.log"
Set parameter DisplayInterval to value 1
Set parameter TimeLimit to value 1200
Gurobi Optimizer version 11.0.3 build v11.0.3rc0 (mac64[x86] - Darwin 24.0.0 24A348)

CPU model: Intel(R) Core(TM) i7-5650U CPU @ 2.20GHz
Thread count: 2 physical cores, 4 logical processors, using up to 4 threads


Warning: excessive time spent in model updates.
Consider calling update less frequently.

Optimize a model with 167872 rows, 144400 columns and 437350 nonzeros
Model fingerprint: 0x7f0570ea
Variable types: 0 continuous, 144400 integer (144400 binary)
Coefficient statistics:
  Matrix range     [1e+00, 1e+02]
  Objective range  [5e-04, 5e-04]
  Bounds range     [1e+00, 1e+00]
  RHS range        [1e+00, 2e+03]
Found heuristic solution: objective 1.1604676
Presolve removed 137467 rows and 80300 columns
Presolve time: 0.82s
Presolved: 30405 rows, 64100 columns, 159200 nonzeros
Variable types: 0 continuous, 64100 integer (64100 binary)

Root simplex log...

Iteration    Objective       Primal Inf.    Dual Inf.      Time
       0    1.0000000e+00   0.000000e+00   0.000000e+00      1s

Use crossover to convert LP symmetric solution to basic solution...

Root crossover log...

    4832 DPushes remaining with DInf 0.0000000e+00                 1s
       0 DPushes remaining with DInf 0.0000000e+00                 1s

   51923 PPushes remaining with PInf 0.0000000e+00                 1s
       0 PPushes remaining with PInf 0.0000000e+00                 1s

  Push phase complete: Pinf 0.0000000e+00, Dinf 1.1519648e-19      1s


Root simplex log...

Iteration    Objective       Primal Inf.    Dual Inf.      Time
   54167    1.0000000e+00   0.000000e+00   0.000000e+00      1s

Root relaxation: objective 1.000000e+00, 54167 iterations, 0.38 seconds (0.23 work units)

    Nodes    |    Current Node    |     Objective Bounds      |     Work
 Expl Unexpl |  Obj  Depth IntInf | Incumbent    BestBd   Gap | It/Node Time

H    0     0                       1.0000000    0.85282  14.7%     -    1s
     0     0          -    0         1.00000    1.00000  0.00%     -    1s

Explored 1 nodes (59465 simplex iterations) in 1.49 seconds (0.84 work units)
Thread count was 4 (of 4 available processors)

Solution count 2: 1 1.16047 

Optimal solution found (tolerance 1.00e-04)
Best objective 1.000000000000e+00, best bound 1.000000000000e+00, gap 0.0000%
